(set-logic QF_SLIA)
(set-option :produce-models true)
(declare-fun x () String)
(assert (str.in_re x (re.++ (re.* (re.++ (str.to_re "29") (re.opt (re.range "7" "9")))) (re.+ (re.union (re.range "3" "9") (str.to_re "7434"))) (re.* (re.range "0" "7")))))
(assert (= (mod (mod (str.to_int x) 189) 96) 0))
(assert (< (str.len x) 100))
(check-sat)
(get-model)